instances/knapsack/discrete_knapsack_uncertainty/knapsack_110_12.lp
\ Model knapsack_110_12
\ LP format - for model browsing. Use MPS format to capture full model detail.
\ Signature: 0x1c7a262dccd0e095
Minimize
  - 87 x[0] - 4 x[1] - 97 x[2] - 21 x[3] - 7 x[4] - 86 x[5] - 47 x[6]
   - 13 x[7] - 24 x[8] - 52 x[9] - 52 x[10] - 76 x[11] - 28 x[12]
   - 27 x[13] - 96 x[14] - 65 x[15] - 39 x[16] - 39 x[17] - 24 x[18]
   - 71 x[19] - 67 x[20] - 44 x[21] - 33 x[22] - 65 x[23] - 62 x[24]
   - 32 x[25] - 5 x[26] - 53 x[27] - 31 x[28] - 90 x[29] - 90 x[30]
   - 13 x[31] - 57 x[32] - 96 x[33] - 81 x[34] - 38 x[35] - 42 x[36]
   - 84 x[37] - 64 x[38] - 29 x[39] - 53 x[40] - 23 x[41] - 27 x[42]
   - 36 x[43] - 32 x[44] - 4 x[45] - 42 x[46] - 58 x[47] - 86 x[48]
   - 31 x[49] - 48 x[50] - 40 x[51] - 92 x[52] - 2 x[53] - 73 x[54]
   - 47 x[55] - 40 x[56] - 85 x[57] - 65 x[58] - 4 x[59] - 81 x[60]
   - 59 x[61] - 75 x[62] - 79 x[63] - 96 x[64] - 82 x[65] - 98 x[66]
   - 67 x[67] - 90 x[68] - 15 x[69] - 94 x[70] - 4 x[71] - 50 x[72]
   - 47 x[73] - 12 x[74] - 95 x[75] - 43 x[76] - 2 x[77] - 65 x[78]
   - 37 x[79] - 60 x[80] - 67 x[81] - 23 x[82] - 83 x[83] - 58 x[84]
   - 62 x[85] - 83 x[86] - 24 x[87] - 41 x[88] - 16 x[89] - 99 x[90]
   - 91 x[91] - 63 x[92] - 62 x[93] - 45 x[94] - 52 x[95] - 66 x[96]
   - 69 x[97] - 22 x[98] - 82 x[99] - 50 x[100] - 51 x[101] - 60 x[102]
   - 55 x[103] - 84 x[104] - 84 x[105] - 35 x[106] - 58 x[107] - 79 x[108]
   - 2 x[109]
Subject To
 primal_upper: 37 x[0] + 65 x[1] + 47 x[2] + 12 x[3] + 17 x[4] + 75 x[5]
   + 62 x[6] + 29 x[7] + 2 x[8] + 39 x[9] + 81 x[10] + 44 x[11] + 21 x[12]
   + 29 x[13] + 70 x[14] + 2 x[15] + 30 x[16] + 25 x[17] + 14 x[18]
   + 47 x[19] + 6 x[20] + 5 x[21] + 53 x[22] + 68 x[23] + 30 x[24]
   + 97 x[25] + 27 x[26] + 53 x[27] + 27 x[28] + 36 x[29] + 67 x[30]
   + 13 x[31] + 89 x[32] + 62 x[33] + 13 x[34] + 62 x[35] + 5 x[36]
   + 86 x[37] + 33 x[38] + 4 x[39] + 12 x[40] + 55 x[41] + 75 x[42]
   + 83 x[43] + 88 x[44] + 48 x[45] + 39 x[46] + 59 x[47] + 88 x[48]
   + 61 x[49] + 48 x[50] + 57 x[51] + 18 x[52] + 33 x[53] + 30 x[54]
   + 45 x[55] + 2 x[56] + 72 x[57] + 89 x[58] + 71 x[59] + 2 x[60]
   + 64 x[61] + 89 x[62] + 84 x[63] + 53 x[64] + 69 x[65] + 58 x[66]
   + 44 x[67] + 17 x[68] + 91 x[69] + 63 x[70] + 99 x[71] + 47 x[72]
   + 72 x[73] + 45 x[74] + 54 x[75] + 100 x[76] + 56 x[77] + 18 x[78]
   + 80 x[79] + 47 x[80] + 99 x[81] + 92 x[82] + 35 x[83] + 71 x[84]
   + 35 x[85] + 97 x[86] + 81 x[87] + 91 x[88] + 84 x[89] + 98 x[90]
   + 18 x[91] + 70 x[92] + 13 x[93] + 65 x[94] + 78 x[95] + 2 x[96]
   + 22 x[97] + 73 x[98] + 57 x[99] + 90 x[100] + 21 x[101] + 79 x[102]
   + 61 x[103] + 98 x[104] + 27 x[105] + 28 x[106] + 80 x[107] + 68 x[108]
   + 30 x[109] + 3.7 r[0] + 6.5 r[1] + 4.7 r[2] + 1.2 r[3] + 1.7 r[4]
   + 7.5 r[5] + 6.2 r[6] + 2.9 r[7] + 0.2 r[8] + 3.9 r[9] + 8.1 r[10]
   + 4.4 r[11] + 2.1 r[12] + 2.9 r[13] + 7 r[14] + 0.2 r[15] + 3 r[16]
   + 2.5 r[17] + 1.4 r[18] + 4.7 r[19] + 0.6 r[20] + 0.5 r[21] + 5.3 r[22]
   + 6.8 r[23] + 3 r[24] + 9.7 r[25] + 2.7 r[26] + 5.3 r[27] + 2.7 r[28]
   + 3.6 r[29] + 6.7 r[30] + 1.3 r[31] + 8.9 r[32] + 6.2 r[33] + 1.3 r[34]
   + 6.2 r[35] + 0.5 r[36] + 8.6 r[37] + 3.3 r[38] + 0.4 r[39] + 1.2 r[40]
   + 5.5 r[41] + 7.5 r[42] + 8.3 r[43] + 8.8 r[44] + 4.8 r[45] + 3.9 r[46]
   + 5.9 r[47] + 8.8 r[48] + 6.1 r[49] + 4.8 r[50] + 5.7 r[51] + 1.8 r[52]
   + 3.3 r[53] + 3 r[54] + 4.5 r[55] + 0.2 r[56] + 7.2 r[57] + 8.9 r[58]
   + 7.1 r[59] + 0.2 r[60] + 6.4 r[61] + 8.9 r[62] + 8.4 r[63] + 5.3 r[64]
   + 6.9 r[65] + 5.8 r[66] + 4.4 r[67] + 1.7 r[68] + 9.1 r[69] + 6.3 r[70]
   + 9.9 r[71] + 4.7 r[72] + 7.2 r[73] + 4.5 r[74] + 5.4 r[75] + 10 r[76]
   + 5.6 r[77] + 1.8 r[78] + 8 r[79] + 4.7 r[80] + 9.9 r[81] + 9.2 r[82]
   + 3.5 r[83] + 7.1 r[84] + 3.5 r[85] + 9.7 r[86] + 8.1 r[87] + 9.1 r[88]
   + 8.4 r[89] + 9.8 r[90] + 1.8 r[91] + 7 r[92] + 1.3 r[93] + 6.5 r[94]
   + 7.8 r[95] + 0.2 r[96] + 2.2 r[97] + 7.3 r[98] + 5.7 r[99] + 9 r[100]
   + 2.1 r[101] + 7.9 r[102] + 6.1 r[103] + 9.8 r[104] + 2.7 r[105]
   + 2.8 r[106] + 8 r[107] + 6.8 r[108] + 3 r[109] <= 540
 primal_lower: 0.5383340792182582 x[0] + 2.210650348490895 x[1]
   + 4.4192943758784 x[2] + 2.838945839826077 x[3] + 1.599608552648272 x[4]
   + 3.578031069329646 x[5] + 1.395661546682868 x[6]
   + 0.9315592173204491 x[7] + 4.531424617643091 x[8]
   + 2.26576642224266 x[9] + 3.454038117730279 x[10]
   + 1.998456385243624 x[11] + 0.8832325887041189 x[12]
   + 2.988998633235382 x[13] + 4.420282607445231 x[14]
   + 2.100505288912646 x[15] + 1.138886475692073 x[16]
   + 1.30885862138658 x[17] + 2.945760058932306 x[18]
   + 0.6457719849685032 x[19] + 0.2877626412212731 x[20]
   + 1.201970762932169 x[21] + 1.141229770069377 x[22]
   + 1.79633087766827 x[23] + 1.542844180117221 x[24]
   + 4.604531633395172 x[25] + 3.936042802678189 x[26]
   + 0.8200767358672247 x[27] + 2.145561457343991 x[28]
   + 3.690502768849888 x[29] + 3.751211273676978 x[30]
   + 1.21076074690819 x[31] + 3.790922509462601 x[32]
   + 1.234668639424444 x[33] + 4.179725817078958 x[34]
   + 4.416896883657558 x[35] + 3.718452814445071 x[36]
   + 2.814453429158645 x[37] + 2.626383562613571 x[38]
   + 0.9760601866980307 x[39] + 0.4621322535933138 x[40]
   + 3.477254043925752 x[41] + 1.248429392025484 x[42]
   + 2.498415472389852 x[43] + 1.043112546786777 x[44]
   + 1.210538767253588 x[45] + 2.389515004777483 x[46]
   + 2.821309956456453 x[47] + 1.895532386955648 x[48]
   + 1.966175926788075 x[49] + 3.020597244168255 x[50]
   + 4.446081540538289 x[51] + 1.417390346257903 x[52]
   + 0.4569725475397701 x[53] + 3.404614691853274 x[54]
   + 2.097895515495766 x[55] + 1.6234889143241 x[56]
   + 3.481427159526473 x[57] + 4.787366730301441 x[58]
   + 1.287312065420124 x[59] + 3.455241208040045 x[60]
   + 1.334712229088439 x[61] + 2.598365768122624 x[62]
   + 0.4499568651757345 x[63] + 0.4182841238973447 x[64]
   + 2.173455456921397 x[65] + 3.481385153917463 x[66]
   + 1.415387415723115 x[67] + 1.035856982150854 x[68]
   + 3.481947601072311 x[69] + 3.560545205252209 x[70]
   + 2.648661756070666 x[71] + 3.625919814695591 x[72]
   + 0.5636392308727395 x[73] + 3.171963668693045 x[74]
   + 1.412323362734384 x[75] + 4.982296524391337 x[76]
   + 4.630336126792663 x[77] + 3.600752928138967 x[78]
   + 0.7710102534690149 x[79] + 1.590671469939522 x[80]
   + 1.536039943308837 x[81] + 3.327230092092204 x[82]
   + 1.502020313263823 x[83] + 4.226742930045195 x[84]
   + 1.593863351099832 x[85] + 4.227814000986378 x[86]
   + 0.899485072826682 x[87] + 0.9426081174926287 x[88]
   + 1.968621194891561 x[89] + 0.339037263018042 x[90]
   + 4.691836239804541 x[91] + 0.1283122833873143 x[92]
   + 3.355775868997829 x[93] + 0.3614008333833594 x[94]
   + 3.560910043049774 x[95] + 2.246318909684669 x[96]
   + 0.0121948254302471 x[97] + 5.016613328641788 x[98]
   + 5.094168723700601 x[99] + 3.043292765188229 x[100]
   + 3.936130658074005 x[101] + 4.963328033386886 x[102]
   + 3.229428673171562 x[103] + 2.171066674636399 x[104]
   + 2.868749128105764 x[105] + 3.459264746645935 x[106]
   + 2.10884801931353 x[107] + 0.0482600325135958 x[108]
   + 0.6820903409906173 x[109] + 23 u[0] + 96 u[1] + 86 u[2] + 7 u[3]
   + 64 u[4] + 73 u[5] + 37 u[6] + 23 u[7] + 57 u[8] + 98 u[9] + 35 u[10]
   + 71 u[11] + 92 u[12] + 36 u[13] + 60 u[14] + 44 u[15] + 33 u[16]
   + 96 u[17] + 93 u[18] + 98 u[19] + 65 u[20] + 3 u[21] + 76 u[22]
   + 34 u[23] + 92 u[24] + 32 u[25] + 46 u[26] + 51 u[27] + 81 u[28]
   + 43 u[29] + 89 u[30] + 99 u[31] + 3 u[32] + 69 u[33] + 72 u[34]
   + 73 u[35] + 44 u[36] + 20 u[37] + 56 u[38] + 70 u[39] + 59 u[40]
   + 49 u[41] + 22 u[42] + 57 u[43] + 99 u[44] + 86 u[45] + 9 u[46]
   + 61 u[47] + 91 u[48] + 100 u[49] + 66 u[50] + 52 u[51] + 29 u[52]
   + 32 u[53] + 76 u[54] + 15 u[55] + 49 u[56] + 6 u[57] + 32 u[58]
   + 26 u[59] + 76 u[60] + 70 u[61] + 31 u[62] + 70 u[63] + 7 u[64]
   + 44 u[65] + 60 u[66] + 98 u[67] + 100 u[68] + 5 u[69] + 29 u[70]
   + 33 u[71] + 70 u[72] + 95 u[73] + 15 u[74] + 36 u[75] + 94 u[76]
   + 47 u[77] + 68 u[78] + 50 u[79] + 41 u[80] + 97 u[81] + 62 u[82]
   + 29 u[83] + u[84] + u[85] + 63 u[86] + 84 u[87] + 54 u[88] + 55 u[89]
   + 24 u[90] + 68 u[91] + 8 u[92] + 91 u[93] + 44 u[94] + 77 u[95]
   + 33 u[96] + 40 u[97] + 88 u[98] + 76 u[99] + 5 u[100] + 48 u[101]
   + 6 u[102] + 20 u[103] + 25 u[104] + 14 u[105] + 95 u[106] + 74 u[107]
   + 82 u[108] + 61 u[109] <= 74733
 mccormick1[0]: - u[0] + r[0] <= 0
 mccormick1[1]: - u[1] + r[1] <= 0
 mccormick1[2]: - u[2] + r[2] <= 0
 mccormick1[3]: - u[3] + r[3] <= 0
 mccormick1[4]: - u[4] + r[4] <= 0
 mccormick1[5]: - u[5] + r[5] <= 0
 mccormick1[6]: - u[6] + r[6] <= 0
 mccormick1[7]: - u[7] + r[7] <= 0
 mccormick1[8]: - u[8] + r[8] <= 0
 mccormick1[9]: - u[9] + r[9] <= 0
 mccormick1[10]: - u[10] + r[10] <= 0
 mccormick1[11]: - u[11] + r[11] <= 0
 mccormick1[12]: - u[12] + r[12] <= 0
 mccormick1[13]: - u[13] + r[13] <= 0
 mccormick1[14]: - u[14] + r[14] <= 0
 mccormick1[15]: - u[15] + r[15] <= 0
 mccormick1[16]: - u[16] + r[16] <= 0
 mccormick1[17]: - u[17] + r[17] <= 0
 mccormick1[18]: - u[18] + r[18] <= 0
 mccormick1[19]: - u[19] + r[19] <= 0
 mccormick1[20]: - u[20] + r[20] <= 0
 mccormick1[21]: - u[21] + r[21] <= 0
 mccormick1[22]: - u[22] + r[22] <= 0
 mccormick1[23]: - u[23] + r[23] <= 0
 mccormick1[24]: - u[24] + r[24] <= 0
 mccormick1[25]: - u[25] + r[25] <= 0
 mccormick1[26]: - u[26] + r[26] <= 0
 mccormick1[27]: - u[27] + r[27] <= 0
 mccormick1[28]: - u[28] + r[28] <= 0
 mccormick1[29]: - u[29] + r[29] <= 0
 mccormick1[30]: - u[30] + r[30] <= 0
 mccormick1[31]: - u[31] + r[31] <= 0
 mccormick1[32]: - u[32] + r[32] <= 0
 mccormick1[33]: - u[33] + r[33] <= 0
 mccormick1[34]: - u[34] + r[34] <= 0
 mccormick1[35]: - u[35] + r[35] <= 0
 mccormick1[36]: - u[36] + r[36] <= 0
 mccormick1[37]: - u[37] + r[37] <= 0
 mccormick1[38]: - u[38] + r[38] <= 0
 mccormick1[39]: - u[39] + r[39] <= 0
 mccormick1[40]: - u[40] + r[40] <= 0
 mccormick1[41]: - u[41] + r[41] <= 0
 mccormick1[42]: - u[42] + r[42] <= 0
 mccormick1[43]: - u[43] + r[43] <= 0
 mccormick1[44]: - u[44] + r[44] <= 0
 mccormick1[45]: - u[45] + r[45] <= 0
 mccormick1[46]: - u[46] + r[46] <= 0
 mccormick1[47]: - u[47] + r[47] <= 0
 mccormick1[48]: - u[48] + r[48] <= 0
 mccormick1[49]: - u[49] + r[49] <= 0
 mccormick1[50]: - u[50] + r[50] <= 0
 mccormick1[51]: - u[51] + r[51] <= 0
 mccormick1[52]: - u[52] + r[52] <= 0
 mccormick1[53]: - u[53] + r[53] <= 0
 mccormick1[54]: - u[54] + r[54] <= 0
 mccormick1[55]: - u[55] + r[55] <= 0
 mccormick1[56]: - u[56] + r[56] <= 0
 mccormick1[57]: - u[57] + r[57] <= 0
 mccormick1[58]: - u[58] + r[58] <= 0
 mccormick1[59]: - u[59] + r[59] <= 0
 mccormick1[60]: - u[60] + r[60] <= 0
 mccormick1[61]: - u[61] + r[61] <= 0
 mccormick1[62]: - u[62] + r[62] <= 0
 mccormick1[63]: - u[63] + r[63] <= 0
 mccormick1[64]: - u[64] + r[64] <= 0
 mccormick1[65]: - u[65] + r[65] <= 0
 mccormick1[66]: - u[66] + r[66] <= 0
 mccormick1[67]: - u[67] + r[67] <= 0
 mccormick1[68]: - u[68] + r[68] <= 0
 mccormick1[69]: - u[69] + r[69] <= 0
 mccormick1[70]: - u[70] + r[70] <= 0
 mccormick1[71]: - u[71] + r[71] <= 0
 mccormick1[72]: - u[72] + r[72] <= 0
 mccormick1[73]: - u[73] + r[73] <= 0
 mccormick1[74]: - u[74] + r[74] <= 0
 mccormick1[75]: - u[75] + r[75] <= 0
 mccormick1[76]: - u[76] + r[76] <= 0
 mccormick1[77]: - u[77] + r[77] <= 0
 mccormick1[78]: - u[78] + r[78] <= 0
 mccormick1[79]: - u[79] + r[79] <= 0
 mccormick1[80]: - u[80] + r[80] <= 0
 mccormick1[81]: - u[81] + r[81] <= 0
 mccormick1[82]: - u[82] + r[82] <= 0
 mccormick1[83]: - u[83] + r[83] <= 0
 mccormick1[84]: - u[84] + r[84] <= 0
 mccormick1[85]: - u[85] + r[85] <= 0
 mccormick1[86]: - u[86] + r[86] <= 0
 mccormick1[87]: - u[87] + r[87] <= 0
 mccormick1[88]: - u[88] + r[88] <= 0
 mccormick1[89]: - u[89] + r[89] <= 0
 mccormick1[90]: - u[90] + r[90] <= 0
 mccormick1[91]: - u[91] + r[91] <= 0
 mccormick1[92]: - u[92] + r[92] <= 0
 mccormick1[93]: - u[93] + r[93] <= 0
 mccormick1[94]: - u[94] + r[94] <= 0
 mccormick1[95]: - u[95] + r[95] <= 0
 mccormick1[96]: - u[96] + r[96] <= 0
 mccormick1[97]: - u[97] + r[97] <= 0
 mccormick1[98]: - u[98] + r[98] <= 0
 mccormick1[99]: - u[99] + r[99] <= 0
 mccormick1[100]: - u[100] + r[100] <= 0
 mccormick1[101]: - u[101] + r[101] <= 0
 mccormick1[102]: - u[102] + r[102] <= 0
 mccormick1[103]: - u[103] + r[103] <= 0
 mccormick1[104]: - u[104] + r[104] <= 0
 mccormick1[105]: - u[105] + r[105] <= 0
 mccormick1[106]: - u[106] + r[106] <= 0
 mccormick1[107]: - u[107] + r[107] <= 0
 mccormick1[108]: - u[108] + r[108] <= 0
 mccormick1[109]: - u[109] + r[109] <= 0
 mccormick2[0]: - x[0] + r[0] <= 0
 mccormick2[1]: - x[1] + r[1] <= 0
 mccormick2[2]: - x[2] + r[2] <= 0
 mccormick2[3]: - x[3] + r[3] <= 0
 mccormick2[4]: - x[4] + r[4] <= 0
 mccormick2[5]: - x[5] + r[5] <= 0
 mccormick2[6]: - x[6] + r[6] <= 0
 mccormick2[7]: - x[7] + r[7] <= 0
 mccormick2[8]: - x[8] + r[8] <= 0
 mccormick2[9]: - x[9] + r[9] <= 0
 mccormick2[10]: - x[10] + r[10] <= 0
 mccormick2[11]: - x[11] + r[11] <= 0
 mccormick2[12]: - x[12] + r[12] <= 0
 mccormick2[13]: - x[13] + r[13] <= 0
 mccormick2[14]: - x[14] + r[14] <= 0
 mccormick2[15]: - x[15] + r[15] <= 0
 mccormick2[16]: - x[16] + r[16] <= 0
 mccormick2[17]: - x[17] + r[17] <= 0
 mccormick2[18]: - x[18] + r[18] <= 0
 mccormick2[19]: - x[19] + r[19] <= 0
 mccormick2[20]: - x[20] + r[20] <= 0
 mccormick2[21]: - x[21] + r[21] <= 0
 mccormick2[22]: - x[22] + r[22] <= 0
 mccormick2[23]: - x[23] + r[23] <= 0
 mccormick2[24]: - x[24] + r[24] <= 0
 mccormick2[25]: - x[25] + r[25] <= 0
 mccormick2[26]: - x[26] + r[26] <= 0
 mccormick2[27]: - x[27] + r[27] <= 0
 mccormick2[28]: - x[28] + r[28] <= 0
 mccormick2[29]: - x[29] + r[29] <= 0
 mccormick2[30]: - x[30] + r[30] <= 0
 mccormick2[31]: - x[31] + r[31] <= 0
 mccormick2[32]: - x[32] + r[32] <= 0
 mccormick2[33]: - x[33] + r[33] <= 0
 mccormick2[34]: - x[34] + r[34] <= 0
 mccormick2[35]: - x[35] + r[35] <= 0
 mccormick2[36]: - x[36] + r[36] <= 0
 mccormick2[37]: - x[37] + r[37] <= 0
 mccormick2[38]: - x[38] + r[38] <= 0
 mccormick2[39]: - x[39] + r[39] <= 0
 mccormick2[40]: - x[40] + r[40] <= 0
 mccormick2[41]: - x[41] + r[41] <= 0
 mccormick2[42]: - x[42] + r[42] <= 0
 mccormick2[43]: - x[43] + r[43] <= 0
 mccormick2[44]: - x[44] + r[44] <= 0
 mccormick2[45]: - x[45] + r[45] <= 0
 mccormick2[46]: - x[46] + r[46] <= 0
 mccormick2[47]: - x[47] + r[47] <= 0
 mccormick2[48]: - x[48] + r[48] <= 0
 mccormick2[49]: - x[49] + r[49] <= 0
 mccormick2[50]: - x[50] + r[50] <= 0
 mccormick2[51]: - x[51] + r[51] <= 0
 mccormick2[52]: - x[52] + r[52] <= 0
 mccormick2[53]: - x[53] + r[53] <= 0
 mccormick2[54]: - x[54] + r[54] <= 0
 mccormick2[55]: - x[55] + r[55] <= 0
 mccormick2[56]: - x[56] + r[56] <= 0
 mccormick2[57]: - x[57] + r[57] <= 0
 mccormick2[58]: - x[58] + r[58] <= 0
 mccormick2[59]: - x[59] + r[59] <= 0
 mccormick2[60]: - x[60] + r[60] <= 0
 mccormick2[61]: - x[61] + r[61] <= 0
 mccormick2[62]: - x[62] + r[62] <= 0
 mccormick2[63]: - x[63] + r[63] <= 0
 mccormick2[64]: - x[64] + r[64] <= 0
 mccormick2[65]: - x[65] + r[65] <= 0
 mccormick2[66]: - x[66] + r[66] <= 0
 mccormick2[67]: - x[67] + r[67] <= 0
 mccormick2[68]: - x[68] + r[68] <= 0
 mccormick2[69]: - x[69] + r[69] <= 0
 mccormick2[70]: - x[70] + r[70] <= 0
 mccormick2[71]: - x[71] + r[71] <= 0
 mccormick2[72]: - x[72] + r[72] <= 0
 mccormick2[73]: - x[73] + r[73] <= 0
 mccormick2[74]: - x[74] + r[74] <= 0
 mccormick2[75]: - x[75] + r[75] <= 0
 mccormick2[76]: - x[76] + r[76] <= 0
 mccormick2[77]: - x[77] + r[77] <= 0
 mccormick2[78]: - x[78] + r[78] <= 0
 mccormick2[79]: - x[79] + r[79] <= 0
 mccormick2[80]: - x[80] + r[80] <= 0
 mccormick2[81]: - x[81] + r[81] <= 0
 mccormick2[82]: - x[82] + r[82] <= 0
 mccormick2[83]: - x[83] + r[83] <= 0
 mccormick2[84]: - x[84] + r[84] <= 0
 mccormick2[85]: - x[85] + r[85] <= 0
 mccormick2[86]: - x[86] + r[86] <= 0
 mccormick2[87]: - x[87] + r[87] <= 0
 mccormick2[88]: - x[88] + r[88] <= 0
 mccormick2[89]: - x[89] + r[89] <= 0
 mccormick2[90]: - x[90] + r[90] <= 0
 mccormick2[91]: - x[91] + r[91] <= 0
 mccormick2[92]: - x[92] + r[92] <= 0
 mccormick2[93]: - x[93] + r[93] <= 0
 mccormick2[94]: - x[94] + r[94] <= 0
 mccormick2[95]: - x[95] + r[95] <= 0
 mccormick2[96]: - x[96] + r[96] <= 0
 mccormick2[97]: - x[97] + r[97] <= 0
 mccormick2[98]: - x[98] + r[98] <= 0
 mccormick2[99]: - x[99] + r[99] <= 0
 mccormick2[100]: - x[100] + r[100] <= 0
 mccormick2[101]: - x[101] + r[101] <= 0
 mccormick2[102]: - x[102] + r[102] <= 0
 mccormick2[103]: - x[103] + r[103] <= 0
 mccormick2[104]: - x[104] + r[104] <= 0
 mccormick2[105]: - x[105] + r[105] <= 0
 mccormick2[106]: - x[106] + r[106] <= 0
 mccormick2[107]: - x[107] + r[107] <= 0
 mccormick2[108]: - x[108] + r[108] <= 0
 mccormick2[109]: - x[109] + r[109] <= 0
 mccormick3[0]: x[0] + u[0] - r[0] <= 1
 mccormick3[1]: x[1] + u[1] - r[1] <= 1
 mccormick3[2]: x[2] + u[2] - r[2] <= 1
 mccormick3[3]: x[3] + u[3] - r[3] <= 1
 mccormick3[4]: x[4] + u[4] - r[4] <= 1
 mccormick3[5]: x[5] + u[5] - r[5] <= 1
 mccormick3[6]: x[6] + u[6] - r[6] <= 1
 mccormick3[7]: x[7] + u[7] - r[7] <= 1
 mccormick3[8]: x[8] + u[8] - r[8] <= 1
 mccormick3[9]: x[9] + u[9] - r[9] <= 1
 mccormick3[10]: x[10] + u[10] - r[10] <= 1
 mccormick3[11]: x[11] + u[11] - r[11] <= 1
 mccormick3[12]: x[12] + u[12] - r[12] <= 1
 mccormick3[13]: x[13] + u[13] - r[13] <= 1
 mccormick3[14]: x[14] + u[14] - r[14] <= 1
 mccormick3[15]: x[15] + u[15] - r[15] <= 1
 mccormick3[16]: x[16] + u[16] - r[16] <= 1
 mccormick3[17]: x[17] + u[17] - r[17] <= 1
 mccormick3[18]: x[18] + u[18] - r[18] <= 1
 mccormick3[19]: x[19] + u[19] - r[19] <= 1
 mccormick3[20]: x[20] + u[20] - r[20] <= 1
 mccormick3[21]: x[21] + u[21] - r[21] <= 1
 mccormick3[22]: x[22] + u[22] - r[22] <= 1
 mccormick3[23]: x[23] + u[23] - r[23] <= 1
 mccormick3[24]: x[24] + u[24] - r[24] <= 1
 mccormick3[25]: x[25] + u[25] - r[25] <= 1
 mccormick3[26]: x[26] + u[26] - r[26] <= 1
 mccormick3[27]: x[27] + u[27] - r[27] <= 1
 mccormick3[28]: x[28] + u[28] - r[28] <= 1
 mccormick3[29]: x[29] + u[29] - r[29] <= 1
 mccormick3[30]: x[30] + u[30] - r[30] <= 1
 mccormick3[31]: x[31] + u[31] - r[31] <= 1
 mccormick3[32]: x[32] + u[32] - r[32] <= 1
 mccormick3[33]: x[33] + u[33] - r[33] <= 1
 mccormick3[34]: x[34] + u[34] - r[34] <= 1
 mccormick3[35]: x[35] + u[35] - r[35] <= 1
 mccormick3[36]: x[36] + u[36] - r[36] <= 1
 mccormick3[37]: x[37] + u[37] - r[37] <= 1
 mccormick3[38]: x[38] + u[38] - r[38] <= 1
 mccormick3[39]: x[39] + u[39] - r[39] <= 1
 mccormick3[40]: x[40] + u[40] - r[40] <= 1
 mccormick3[41]: x[41] + u[41] - r[41] <= 1
 mccormick3[42]: x[42] + u[42] - r[42] <= 1
 mccormick3[43]: x[43] + u[43] - r[43] <= 1
 mccormick3[44]: x[44] + u[44] - r[44] <= 1
 mccormick3[45]: x[45] + u[45] - r[45] <= 1
 mccormick3[46]: x[46] + u[46] - r[46] <= 1
 mccormick3[47]: x[47] + u[47] - r[47] <= 1
 mccormick3[48]: x[48] + u[48] - r[48] <= 1
 mccormick3[49]: x[49] + u[49] - r[49] <= 1
 mccormick3[50]: x[50] + u[50] - r[50] <= 1
 mccormick3[51]: x[51] + u[51] - r[51] <= 1
 mccormick3[52]: x[52] + u[52] - r[52] <= 1
 mccormick3[53]: x[53] + u[53] - r[53] <= 1
 mccormick3[54]: x[54] + u[54] - r[54] <= 1
 mccormick3[55]: x[55] + u[55] - r[55] <= 1
 mccormick3[56]: x[56] + u[56] - r[56] <= 1
 mccormick3[57]: x[57] + u[57] - r[57] <= 1
 mccormick3[58]: x[58] + u[58] - r[58] <= 1
 mccormick3[59]: x[59] + u[59] - r[59] <= 1
 mccormick3[60]: x[60] + u[60] - r[60] <= 1
 mccormick3[61]: x[61] + u[61] - r[61] <= 1
 mccormick3[62]: x[62] + u[62] - r[62] <= 1
 mccormick3[63]: x[63] + u[63] - r[63] <= 1
 mccormick3[64]: x[64] + u[64] - r[64] <= 1
 mccormick3[65]: x[65] + u[65] - r[65] <= 1
 mccormick3[66]: x[66] + u[66] - r[66] <= 1
 mccormick3[67]: x[67] + u[67] - r[67] <= 1
 mccormick3[68]: x[68] + u[68] - r[68] <= 1
 mccormick3[69]: x[69] + u[69] - r[69] <= 1
 mccormick3[70]: x[70] + u[70] - r[70] <= 1
 mccormick3[71]: x[71] + u[71] - r[71] <= 1
 mccormick3[72]: x[72] + u[72] - r[72] <= 1
 mccormick3[73]: x[73] + u[73] - r[73] <= 1
 mccormick3[74]: x[74] + u[74] - r[74] <= 1
 mccormick3[75]: x[75] + u[75] - r[75] <= 1
 mccormick3[76]: x[76] + u[76] - r[76] <= 1
 mccormick3[77]: x[77] + u[77] - r[77] <= 1
 mccormick3[78]: x[78] + u[78] - r[78] <= 1
 mccormick3[79]: x[79] + u[79] - r[79] <= 1
 mccormick3[80]: x[80] + u[80] - r[80] <= 1
 mccormick3[81]: x[81] + u[81] - r[81] <= 1
 mccormick3[82]: x[82] + u[82] - r[82] <= 1
 mccormick3[83]: x[83] + u[83] - r[83] <= 1
 mccormick3[84]: x[84] + u[84] - r[84] <= 1
 mccormick3[85]: x[85] + u[85] - r[85] <= 1
 mccormick3[86]: x[86] + u[86] - r[86] <= 1
 mccormick3[87]: x[87] + u[87] - r[87] <= 1
 mccormick3[88]: x[88] + u[88] - r[88] <= 1
 mccormick3[89]: x[89] + u[89] - r[89] <= 1
 mccormick3[90]: x[90] + u[90] - r[90] <= 1
 mccormick3[91]: x[91] + u[91] - r[91] <= 1
 mccormick3[92]: x[92] + u[92] - r[92] <= 1
 mccormick3[93]: x[93] + u[93] - r[93] <= 1
 mccormick3[94]: x[94] + u[94] - r[94] <= 1
 mccormick3[95]: x[95] + u[95] - r[95] <= 1
 mccormick3[96]: x[96] + u[96] - r[96] <= 1
 mccormick3[97]: x[97] + u[97] - r[97] <= 1
 mccormick3[98]: x[98] + u[98] - r[98] <= 1
 mccormick3[99]: x[99] + u[99] - r[99] <= 1
 mccormick3[100]: x[100] + u[100] - r[100] <= 1
 mccormick3[101]: x[101] + u[101] - r[101] <= 1
 mccormick3[102]: x[102] + u[102] - r[102] <= 1
 mccormick3[103]: x[103] + u[103] - r[103] <= 1
 mccormick3[104]: x[104] + u[104] - r[104] <= 1
 mccormick3[105]: x[105] + u[105] - r[105] <= 1
 mccormick3[106]: x[106] + u[106] - r[106] <= 1
 mccormick3[107]: x[107] + u[107] - r[107] <= 1
 mccormick3[108]: x[108] + u[108] - r[108] <= 1
 mccormick3[109]: x[109] + u[109] - r[109] <= 1
Bounds
Binaries
 x[0] x[1] x[2] x[3] x[4] x[5] x[6] x[7] x[8] x[9] x[10] x[11] x[12] x[13]
 x[14] x[15] x[16] x[17] x[18] x[19] x[20] x[21] x[22] x[23] x[24] x[25]
 x[26] x[27] x[28] x[29] x[30] x[31] x[32] x[33] x[34] x[35] x[36] x[37]
 x[38] x[39] x[40] x[41] x[42] x[43] x[44] x[45] x[46] x[47] x[48] x[49]
 x[50] x[51] x[52] x[53] x[54] x[55] x[56] x[57] x[58] x[59] x[60] x[61]
 x[62] x[63] x[64] x[65] x[66] x[67] x[68] x[69] x[70] x[71] x[72] x[73]
 x[74] x[75] x[76] x[77] x[78] x[79] x[80] x[81] x[82] x[83] x[84] x[85]
 x[86] x[87] x[88] x[89] x[90] x[91] x[92] x[93] x[94] x[95] x[96] x[97]
 x[98] x[99] x[100] x[101] x[102] x[103] x[104] x[105] x[106] x[107] x[108]
 x[109] u[0] u[1] u[2] u[3] u[4] u[5] u[6] u[7] u[8] u[9] u[10] u[11] u[12]
 u[13] u[14] u[15] u[16] u[17] u[18] u[19] u[20] u[21] u[22] u[23] u[24]
 u[25] u[26] u[27] u[28] u[29] u[30] u[31] u[32] u[33] u[34] u[35] u[36]
 u[37] u[38] u[39] u[40] u[41] u[42] u[43] u[44] u[45] u[46] u[47] u[48]
 u[49] u[50] u[51] u[52] u[53] u[54] u[55] u[56] u[57] u[58] u[59] u[60]
 u[61] u[62] u[63] u[64] u[65] u[66] u[67] u[68] u[69] u[70] u[71] u[72]
 u[73] u[74] u[75] u[76] u[77] u[78] u[79] u[80] u[81] u[82] u[83] u[84]
 u[85] u[86] u[87] u[88] u[89] u[90] u[91] u[92] u[93] u[94] u[95] u[96]
 u[97] u[98] u[99] u[100] u[101] u[102] u[103] u[104] u[105] u[106] u[107]
 u[108] u[109] r[0] r[1] r[2] r[3] r[4] r[5] r[6] r[7] r[8] r[9] r[10]
 r[11] r[12] r[13] r[14] r[15] r[16] r[17] r[18] r[19] r[20] r[21] r[22]
 r[23] r[24] r[25] r[26] r[27] r[28] r[29] r[30] r[31] r[32] r[33] r[34]
 r[35] r[36] r[37] r[38] r[39] r[40] r[41] r[42] r[43] r[44] r[45] r[46]
 r[47] r[48] r[49] r[50] r[51] r[52] r[53] r[54] r[55] r[56] r[57] r[58]
 r[59] r[60] r[61] r[62] r[63] r[64] r[65] r[66] r[67] r[68] r[69] r[70]
 r[71] r[72] r[73] r[74] r[75] r[76] r[77] r[78] r[79] r[80] r[81] r[82]
 r[83] r[84] r[85] r[86] r[87] r[88] r[89] r[90] r[91] r[92] r[93] r[94]
 r[95] r[96] r[97] r[98] r[99] r[100] r[101] r[102] r[103] r[104] r[105]
 r[106] r[107] r[108] r[109]
End
