instances/knapsack/discrete/knapsack_110_12.kp
99204
110
540

37 3.7 87
65 6.5 4
47 4.7 97
12 1.2 21
17 1.7 7
75 7.5 86
62 6.2 47
29 2.9 13
2 0.2 24
39 3.9 52
81 8.1 52
44 4.4 76
21 2.1 28
29 2.9 27
70 7.0 96
2 0.2 65
30 3.0 39
25 2.5 39
14 1.4 24
47 4.7 71
6 0.6 67
5 0.5 44
53 5.3 33
68 6.8 65
30 3.0 62
97 9.7 32
27 2.7 5
53 5.3 53
27 2.7 31
36 3.6 90
67 6.7 90
13 1.3 13
89 8.9 57
62 6.2 96
13 1.3 81
62 6.2 38
5 0.5 42
86 8.6 84
33 3.3 64
4 0.4 29
12 1.2 53
55 5.5 23
75 7.5 27
83 8.3 36
88 8.8 32
48 4.8 4
39 3.9 42
59 5.9 58
88 8.8 86
61 6.1 31
48 4.8 48
57 5.7 40
18 1.8 92
33 3.3 2
30 3.0 73
45 4.5 47
2 0.2 40
72 7.2 85
89 8.9 65
71 7.1 4
2 0.2 81
64 6.4 59
89 8.9 75
84 8.4 79
53 5.3 96
69 6.9 82
58 5.8 98
44 4.4 67
17 1.7 90
91 9.1 15
63 6.3 94
99 9.9 4
47 4.7 50
72 7.2 47
45 4.5 12
54 5.4 95
100 10.0 43
56 5.6 2
18 1.8 65
80 8.0 37
47 4.7 60
99 9.9 67
92 9.2 23
35 3.5 83
71 7.1 58
35 3.5 62
97 9.7 83
81 8.1 24
91 9.1 41
84 8.4 16
98 9.8 99
18 1.8 91
70 7.0 63
13 1.3 62
65 6.5 45
78 7.8 52
2 0.2 66
22 2.2 69
73 7.3 22
57 5.7 82
90 9.0 50
21 2.1 51
79 7.9 60
61 6.1 55
98 9.8 84
27 2.7 84
28 2.8 35
80 8.0 58
68 6.8 79
30 3.0 2

74733
563

[0.5383340792182582 2.2106503484908955 4.4192943758784 2.8389458398260774 1.599608552648272 3.5780310693296458 1.3956615466828677 0.9315592173204491 4.531424617643091 2.26576642224266 3.454038117730279 1.9984563852436237 0.8832325887041189 2.9889986332353824 4.420282607445231 2.1005052889126463 1.138886475692073 1.3088586213865798 2.9457600589323056 0.6457719849685032 0.2877626412212731 1.2019707629321685 1.141229770069377 1.7963308776682705 1.5428441801172208 4.604531633395172 3.9360428026781893 0.8200767358672247 2.1455614573439905 3.6905027688498877 3.751211273676978 1.2107607469081905 3.790922509462601 1.234668639424444 4.179725817078958 4.416896883657558 3.7184528144450706 2.8144534291586454 2.6263835626135714 0.9760601866980307 0.46213225359331384 3.4772540439257518 1.2484293920254836 2.498415472389852 1.0431125467867775 1.2105387672535883 2.389515004777483 2.821309956456453 1.8955323869556484 1.966175926788075 3.0205972441682554 4.446081540538289 1.4173903462579034 0.4569725475397701 3.4046146918532743 2.0978955154957664 1.6234889143241 3.481427159526473 4.787366730301441 1.2873120654201236 3.4552412080400448 1.3347122290884395 2.598365768122624 0.4499568651757345 0.4182841238973447 2.1734554569213973 3.481385153917463 1.4153874157231154 1.0358569821508536 3.4819476010723114 3.5605452052522093 2.648661756070666 3.625919814695591 0.5636392308727395 3.171963668693045 1.4123233627343843 4.982296524391337 4.630336126792663 3.6007529281389665 0.7710102534690149 1.5906714699395221 1.5360399433088365 3.3272300920922038 1.5020203132638226 4.226742930045195 1.5938633510998323 4.227814000986378 0.899485072826682 0.9426081174926287 1.968621194891561 0.339037263018042 4.691836239804541 0.1283122833873143 3.355775868997829 0.3614008333833594 3.560910043049774 2.2463189096846685 0.012194825430247129 5.016613328641788 5.0941687237006015 3.0432927651882293 3.9361306580740045 4.963328033386886 3.2294286731715616 2.1710666746363994 2.8687491281057644 3.459264746645935 2.10884801931353 0.048260032513595806 0.6820903409906173]

[23 96 86 7 64 73 37 23 57 98 35 71 92 36 60 44 33 96 93 98 65 3 76 34 92 32 46 51 81 43 89 99 3 69 72 73 44 20 56 70 59 49 22 57 99 86 9 61 91 100 66 52 29 32 76 15 49 6 32 26 76 70 31 70 7 44 60 98 100 5 29 33 70 95 15 36 94 47 68 50 41 97 62 29 1 1 63 84 54 55 24 68 8 91 44 77 33 40 88 76 5 48 6 20 25 14 95 74 82 61]
